c This is UnifRandomKSATGenerator
c uniform random 3-SAT generated instance with: 
c clause length: 3 
c number variables: 10 
c number clauses: 43 
c clause to variable ratio: 4.27 
c random number generator name: SHA1PRNG 
c random number generator provider: SUN 
c random number generator seed: 8787323902811331583 
p cnf 10 43
-1 3 6 0
-3 -8 7 0
1 -2 6 0
9 1 -4 0
-3 -4 5 0
-3 -4 6 0
8 -10 -7 0
10 -3 -6 0
9 4 5 0
-3 -4 -7 0
-1 8 9 0
-1 4 6 0
1 4 6 0
10 2 -4 0
-2 9 -4 0
8 10 5 0
-9 5 6 0
-9 -1 -3 0
-10 3 6 0
9 -8 7 0
-10 3 7 0
-9 -10 -4 0
9 -6 7 0
-1 6 -8 0
-1 5 6 0
-3 4 -7 0
-1 -4 6 0
-9 -10 7 0
9 -5 -6 0
-2 -7 6 0
5 -6 -7 0
3 6 7 0
2 10 -3 0
8 3 6 0
8 1 2 0
9 1 2 0
1 2 -8 0
1 -10 5 0
3 4 -7 0
1 3 -6 0
-9 -1 5 0
3 -5 6 0
10 3 -7 0
